c FILE: random-n100-d20-b-n100-d20-1.col

p edge 100 990
e 1 2
e 1 10
e 1 13
e 1 14
e 1 16
e 1 20
e 1 24
e 1 27
e 1 31
e 1 52
e 1 62
e 1 65
e 1 68
e 1 70
e 1 71
e 1 75
e 1 89
e 1 90
e 1 99
e 2 20
e 2 21
e 2 27
e 2 28
e 2 34
e 2 36
e 2 37
e 2 43
e 2 55
e 2 63
e 2 66
e 2 67
e 2 70
e 2 73
e 2 75
e 2 96
e 3 11
e 3 17
e 3 23
e 3 36
e 3 39
e 3 46
e 3 47
e 3 48
e 3 51
e 3 57
e 3 64
e 3 66
e 3 69
e 3 70
e 3 76
e 3 78
e 3 81
e 3 85
e 3 89
e 3 91
e 4 6
e 4 11
e 4 18
e 4 29
e 4 30
e 4 34
e 4 35
e 4 39
e 4 51
e 4 52
e 4 54
e 4 58
e 4 66
e 4 70
e 4 74
e 4 76
e 4 78
e 4 79
e 4 80
e 4 92
e 4 97
e 4 100
e 5 7
e 5 9
e 5 12
e 5 14
e 5 15
e 5 17
e 5 28
e 5 33
e 5 35
e 5 39
e 5 40
e 5 52
e 5 53
e 5 54
e 5 57
e 5 58
e 5 59
e 5 60
e 5 67
e 5 69
e 5 70
e 5 73
e 5 75
e 5 79
e 5 80
e 5 86
e 5 87
e 5 88
e 5 91
e 5 93
e 5 95
e 5 98
e 6 10
e 6 24
e 6 36
e 6 38
e 6 39
e 6 43
e 6 47
e 6 49
e 6 51
e 6 57
e 6 59
e 6 64
e 6 65
e 6 67
e 6 72
e 6 75
e 6 77
e 6 82
e 6 87
e 6 88
e 6 93
e 7 9
e 7 22
e 7 29
e 7 52
e 7 61
e 7 64
e 7 65
e 7 68
e 7 69
e 7 70
e 7 75
e 7 76
e 7 80
e 7 87
e 7 91
e 7 95
e 7 98
e 7 100
e 8 14
e 8 26
e 8 39
e 8 43
e 8 52
e 8 59
e 8 68
e 8 71
e 8 72
e 8 86
e 8 89
e 8 93
e 8 100
e 9 10
e 9 23
e 9 28
e 9 36
e 9 45
e 9 51
e 9 59
e 9 66
e 9 69
e 9 75
e 9 85
e 9 86
e 9 89
e 9 95
e 9 97
e 9 100
e 10 14
e 10 21
e 10 26
e 10 28
e 10 32
e 10 41
e 10 54
e 10 63
e 10 65
e 10 66
e 10 76
e 10 80
e 10 81
e 10 85
e 10 88
e 10 92
e 10 97
e 10 98
e 11 13
e 11 15
e 11 34
e 11 37
e 11 42
e 11 44
e 11 45
e 11 60
e 11 64
e 11 80
e 11 82
e 11 83
e 11 94
e 11 96
e 11 98
e 11 100
e 12 15
e 12 18
e 12 22
e 12 38
e 12 45
e 12 47
e 12 53
e 12 54
e 12 60
e 12 65
e 12 70
e 12 71
e 12 72
e 12 78
e 12 84
e 13 19
e 13 22
e 13 24
e 13 29
e 13 36
e 13 39
e 13 40
e 13 44
e 13 46
e 13 49
e 13 62
e 13 68
e 13 73
e 13 79
e 13 88
e 13 90
e 13 91
e 13 92
e 13 98
e 13 99
e 13 100
e 14 29
e 14 34
e 14 35
e 14 49
e 14 56
e 14 59
e 14 61
e 14 62
e 14 63
e 14 66
e 14 87
e 14 90
e 14 96
e 14 99
e 15 18
e 15 19
e 15 23
e 15 29
e 15 30
e 15 43
e 15 44
e 15 50
e 15 52
e 15 59
e 15 60
e 15 70
e 15 75
e 15 93
e 15 98
e 15 100
e 16 23
e 16 27
e 16 35
e 16 36
e 16 42
e 16 50
e 16 53
e 16 55
e 16 59
e 16 72
e 16 80
e 16 92
e 16 95
e 16 98
e 16 99
e 17 37
e 17 42
e 17 53
e 17 64
e 17 66
e 17 74
e 17 75
e 17 79
e 17 80
e 17 88
e 17 90
e 17 92
e 17 98
e 17 99
e 18 21
e 18 22
e 18 23
e 18 31
e 18 33
e 18 43
e 18 44
e 18 53
e 18 54
e 18 56
e 18 63
e 18 67
e 18 68
e 18 75
e 18 79
e 18 81
e 18 84
e 18 85
e 18 91
e 18 94
e 19 24
e 19 43
e 19 50
e 19 53
e 19 59
e 19 73
e 19 79
e 19 80
e 19 84
e 19 93
e 19 100
e 20 23
e 20 24
e 20 26
e 20 27
e 20 29
e 20 33
e 20 37
e 20 38
e 20 43
e 20 44
e 20 56
e 20 62
e 20 66
e 20 77
e 20 90
e 20 91
e 20 92
e 20 95
e 20 96
e 20 97
e 20 100
e 21 22
e 21 25
e 21 29
e 21 31
e 21 42
e 21 51
e 21 56
e 21 60
e 21 63
e 21 72
e 21 74
e 21 77
e 21 83
e 21 87
e 21 89
e 21 93
e 21 94
e 21 95
e 21 96
e 21 97
e 22 26
e 22 27
e 22 28
e 22 34
e 22 35
e 22 43
e 22 50
e 22 54
e 22 55
e 22 57
e 22 58
e 22 60
e 22 63
e 22 65
e 22 69
e 22 73
e 22 84
e 22 96
e 23 28
e 23 30
e 23 41
e 23 46
e 23 48
e 23 50
e 23 52
e 23 53
e 23 61
e 23 62
e 23 64
e 23 66
e 23 71
e 23 95
e 23 98
e 23 100
e 24 27
e 24 37
e 24 41
e 24 47
e 24 48
e 24 51
e 24 57
e 24 60
e 24 69
e 24 70
e 24 82
e 25 26
e 25 28
e 25 29
e 25 31
e 25 34
e 25 50
e 25 71
e 25 84
e 25 92
e 25 94
e 26 44
e 26 59
e 26 63
e 26 67
e 26 68
e 26 70
e 26 76
e 26 84
e 26 93
e 27 31
e 27 42
e 27 43
e 27 45
e 27 50
e 27 53
e 27 59
e 27 67
e 27 73
e 27 75
e 27 82
e 27 95
e 28 35
e 28 38
e 28 40
e 28 45
e 28 51
e 28 54
e 28 63
e 28 65
e 28 69
e 28 88
e 28 92
e 28 93
e 28 97
e 28 98
e 29 32
e 29 33
e 29 41
e 29 42
e 29 54
e 29 65
e 29 69
e 29 73
e 29 75
e 29 80
e 29 89
e 29 92
e 29 96
e 29 99
e 30 42
e 30 47
e 30 49
e 30 59
e 30 60
e 30 61
e 30 64
e 30 70
e 30 81
e 30 87
e 30 88
e 30 92
e 30 95
e 30 98
e 30 99
e 30 100
e 31 32
e 31 44
e 31 45
e 31 48
e 31 52
e 31 59
e 31 64
e 31 71
e 31 74
e 31 76
e 31 80
e 31 81
e 31 82
e 31 97
e 31 98
e 32 35
e 32 44
e 32 47
e 32 52
e 32 53
e 32 55
e 32 57
e 32 60
e 32 65
e 32 68
e 32 82
e 32 85
e 32 86
e 32 87
e 32 88
e 32 95
e 32 96
e 33 35
e 33 37
e 33 38
e 33 39
e 33 41
e 33 43
e 33 44
e 33 49
e 33 52
e 33 60
e 33 74
e 33 75
e 33 76
e 33 77
e 33 87
e 33 88
e 33 90
e 33 95
e 34 35
e 34 36
e 34 56
e 34 63
e 34 70
e 34 77
e 34 85
e 34 90
e 34 91
e 34 92
e 34 95
e 34 98
e 34 100
e 35 49
e 35 57
e 35 59
e 35 70
e 35 73
e 35 80
e 35 84
e 35 86
e 36 48
e 36 51
e 36 56
e 36 60
e 36 64
e 36 67
e 36 68
e 36 71
e 36 73
e 36 74
e 36 76
e 36 78
e 36 84
e 36 88
e 36 90
e 36 91
e 36 95
e 37 38
e 37 39
e 37 46
e 37 49
e 37 51
e 37 52
e 37 54
e 37 59
e 37 63
e 37 71
e 37 74
e 37 79
e 37 85
e 37 86
e 37 92
e 37 95
e 38 41
e 38 42
e 38 43
e 38 44
e 38 50
e 38 57
e 38 61
e 38 64
e 38 66
e 38 67
e 38 70
e 38 75
e 38 85
e 38 89
e 38 92
e 38 95
e 38 96
e 39 43
e 39 45
e 39 52
e 39 54
e 39 57
e 39 63
e 39 66
e 39 73
e 39 82
e 39 92
e 40 45
e 40 47
e 40 48
e 40 49
e 40 53
e 40 54
e 40 62
e 40 65
e 40 66
e 40 83
e 40 86
e 40 87
e 40 93
e 40 98
e 41 43
e 41 44
e 41 57
e 41 60
e 41 65
e 41 74
e 41 79
e 41 81
e 41 82
e 41 86
e 41 87
e 41 89
e 41 94
e 41 98
e 42 44
e 42 46
e 42 49
e 42 51
e 42 53
e 42 64
e 42 70
e 42 72
e 42 77
e 42 78
e 42 79
e 42 82
e 42 89
e 42 91
e 42 94
e 42 98
e 42 100
e 43 48
e 43 53
e 43 54
e 43 57
e 43 73
e 43 78
e 43 94
e 43 95
e 43 96
e 43 98
e 44 57
e 44 66
e 44 67
e 44 76
e 44 77
e 44 80
e 44 91
e 44 100
e 45 46
e 45 48
e 45 67
e 45 71
e 45 77
e 45 91
e 45 92
e 45 97
e 45 99
e 46 47
e 46 51
e 46 54
e 46 58
e 46 65
e 46 66
e 46 72
e 46 78
e 46 93
e 46 94
e 46 95
e 46 98
e 47 56
e 47 58
e 47 59
e 47 62
e 47 78
e 47 80
e 47 84
e 47 85
e 47 93
e 47 96
e 47 98
e 48 61
e 48 66
e 48 67
e 48 71
e 48 77
e 48 81
e 48 88
e 48 89
e 48 91
e 48 92
e 48 93
e 48 94
e 48 95
e 48 97
e 49 51
e 49 52
e 49 55
e 49 61
e 49 72
e 49 79
e 49 80
e 49 85
e 50 60
e 50 68
e 50 73
e 50 79
e 50 84
e 50 86
e 50 88
e 51 52
e 51 56
e 51 60
e 51 72
e 51 75
e 51 79
e 51 95
e 52 67
e 52 68
e 52 76
e 52 79
e 52 81
e 52 82
e 52 84
e 52 90
e 52 93
e 52 96
e 52 99
e 53 59
e 53 60
e 53 66
e 53 69
e 53 71
e 53 73
e 53 86
e 53 92
e 53 94
e 54 58
e 54 65
e 54 68
e 54 72
e 54 80
e 54 84
e 54 95
e 54 99
e 55 57
e 55 58
e 55 60
e 55 63
e 55 64
e 55 71
e 55 78
e 55 80
e 55 94
e 55 95
e 55 98
e 55 99
e 56 59
e 56 61
e 56 66
e 56 74
e 56 90
e 56 95
e 57 61
e 57 66
e 57 67
e 57 72
e 57 79
e 57 91
e 57 93
e 57 95
e 57 98
e 58 61
e 58 67
e 58 71
e 58 73
e 58 100
e 59 60
e 59 65
e 59 66
e 59 76
e 59 77
e 59 90
e 59 93
e 59 100
e 60 66
e 60 74
e 60 76
e 60 81
e 60 93
e 60 94
e 60 96
e 61 62
e 61 69
e 61 71
e 61 76
e 61 77
e 61 83
e 61 91
e 61 94
e 61 96
e 61 100
e 62 64
e 62 73
e 62 82
e 62 90
e 62 92
e 62 98
e 63 64
e 63 70
e 63 75
e 63 80
e 63 81
e 63 82
e 63 86
e 63 95
e 63 97
e 64 66
e 64 69
e 64 70
e 64 74
e 64 80
e 64 84
e 64 89
e 64 94
e 65 80
e 65 81
e 65 83
e 65 86
e 65 90
e 65 93
e 65 95
e 65 100
e 66 71
e 66 74
e 66 75
e 66 76
e 66 81
e 66 87
e 66 96
e 67 68
e 67 70
e 67 77
e 67 82
e 67 84
e 67 85
e 67 88
e 67 94
e 67 95
e 68 93
e 68 95
e 68 97
e 69 83
e 69 94
e 69 95
e 69 96
e 70 72
e 70 81
e 70 89
e 70 92
e 70 96
e 71 84
e 71 85
e 71 87
e 71 92
e 71 100
e 72 80
e 72 84
e 72 90
e 73 75
e 73 77
e 73 85
e 73 99
e 74 75
e 74 79
e 74 83
e 74 88
e 74 93
e 74 99
e 75 79
e 75 82
e 75 83
e 75 85
e 75 87
e 75 91
e 75 92
e 75 100
e 76 83
e 76 89
e 76 90
e 76 94
e 76 98
e 77 78
e 77 86
e 77 87
e 77 96
e 77 97
e 78 83
e 78 91
e 78 92
e 78 99
e 79 80
e 79 82
e 79 85
e 79 88
e 79 89
e 79 94
e 80 82
e 80 88
e 80 92
e 81 82
e 81 83
e 81 86
e 81 88
e 81 99
e 82 89
e 82 91
e 82 96
e 82 97
e 83 84
e 83 86
e 83 89
e 83 91
e 84 94
e 85 86
e 85 88
e 85 91
e 85 92
e 85 93
e 85 97
e 86 91
e 86 92
e 86 97
e 87 90
e 87 92
e 88 93
e 88 95
e 88 98
e 88 99
e 88 100
e 89 98
e 89 99
e 90 97
e 91 94
e 96 97
e 96 99
e 99 100